
Welcome to IBM(R) ILOG(R) CPLEX(R) Interactive Optimizer 22.1.1.0
  with Simplex, Mixed Integer & Barrier Optimizers
5725-A06 5725-A29 5724-Y48 5724-Y49 5724-Y54 5724-Y55 5655-Y21
Copyright IBM Corp. 1988, 2022.  All Rights Reserved.

Type 'help' for a list of available commands.
Type 'help' followed by a command name for more
information on commands.

CPLEX> Selected objective sense:  MINIMIZE
Selected objective  name:  00000000
Selected RHS        name:  RHS1
Selected bound      name:  BOUND
Problem 'ee.mps' read.
Read time = 0.03 sec. (3.17 ticks)
CPLEX> New value for time limit in seconds: 7200
CPLEX> New value for parallel optimization mode: -1
CPLEX> New value for default parallel thread count: 40
CPLEX> New value for mixed integer optimality gap tolerance: 1e-13
CPLEX> Version identifier: 22.1.1.0 | 2022-11-28 | 9160aff4d
CPXPARAM_Threads                                 40
CPXPARAM_Parallel                                -1
CPXPARAM_TimeLimit                               7200
CPXPARAM_MIP_Tolerances_MIPGap                   1e-13
Found incumbent of value 0.000000 after 0.00 sec. (0.31 ticks)
Tried aggregator 2 times.
MIP Presolve eliminated 183 rows and 2745 columns.
MIP Presolve modified 6090 coefficients.
Aggregator did 713 substitutions.
Reduced MIP has 3636 rows, 7840 columns, and 28953 nonzeros.
Reduced MIP has 7840 binaries, 0 generals, 0 SOSs, and 0 indicators.
Presolve time = 0.07 sec. (69.15 ticks)
Probing time = 0.03 sec. (5.33 ticks)
Tried aggregator 1 time.
Detecting symmetries...
Reduced MIP has 3636 rows, 7840 columns, and 28953 nonzeros.
Reduced MIP has 7840 binaries, 0 generals, 0 SOSs, and 0 indicators.
Presolve time = 0.02 sec. (22.09 ticks)
Probing time = 0.02 sec. (5.12 ticks)
Clique table members: 18788.
MIP emphasis: balance optimality and feasibility.
MIP search method: dynamic search.
Parallel mode: opportunistic, using up to 40 threads.
Root relaxation solution time = 0.12 sec. (97.29 ticks)

        Nodes                                         Cuts/
   Node  Left     Objective  IInf  Best Integer    Best Bound    ItCnt     Gap

*     0+    0                            0.0000  -1.54000e+13              --- 
*     0+    0                      -8.40000e+12  -1.54000e+13            83.33%
      0     0  -1.53900e+13   113  -8.40000e+12  -1.53900e+13     2524   83.21%
*     0+    0                      -1.17900e+13  -1.53900e+13            30.53%
*     0+    0                      -1.53900e+13  -1.53900e+13             0.00%
      0     0  -1.53900e+13   148  -1.53900e+13      Cuts: 83     2759    0.00%
      0     0  -1.53900e+13   201  -1.53900e+13      Cuts: 89     3116    0.00%
*     0+    0                      -1.53900e+13  -1.53900e+13             0.00%
*     0+    0                      -1.53900e+13  -1.53900e+13             0.00%
      0     2  -1.53900e+13   191  -1.53900e+13  -1.53900e+13     3116    0.00%
Elapsed time = 1.81 sec. (1056.53 ticks, tree = 0.02 MB, solutions = 6)
*    20+   27                      -1.53900e+13  -1.53900e+13             0.00%
*    61+   27                      -1.53900e+13  -1.53900e+13             0.00%
    240   121  -1.53900e+13   121  -1.53900e+13  -1.53900e+13    46872    0.00%
   1058   117    infeasible        -1.53900e+13  -1.53900e+13    46460    0.00%
   1812   216  -1.53900e+13   104  -1.53900e+13  -1.53900e+13    86648    0.00%
   2129   298  -1.53900e+13   338  -1.53900e+13  -1.53900e+13   124047    0.00%
   2350   344    infeasible        -1.53900e+13  -1.53900e+13   171988    0.00%
   2699   338        cutoff        -1.53900e+13  -1.53900e+13   176349    0.00%
   3133   322  -1.53900e+13    85  -1.53900e+13  -1.53900e+13   314987    0.00%
   3691   370  -1.53900e+13    73  -1.53900e+13  -1.53900e+13   259763    0.00%
   4288   302  -1.53900e+13    33  -1.53900e+13  -1.53900e+13   340047    0.00%
   7271   428  -1.53900e+13   135  -1.53900e+13  -1.53900e+13   464870    0.00%
Elapsed time = 8.12 sec. (4163.15 ticks, tree = 5.79 MB, solutions = 24)
  10114   795    infeasible        -1.53900e+13  -1.53900e+13   618607    0.00%
  11859   779        cutoff        -1.53900e+13  -1.53900e+13   754009    0.00%
  12749   499  -1.53900e+13   136  -1.53900e+13  -1.53900e+13   874065    0.00%

Performing restart 1

Repeating presolve.
Tried aggregator 2 times.
MIP Presolve eliminated 272 rows and 1390 columns.
MIP Presolve modified 1724 coefficients.
Aggregator did 565 substitutions.
Reduced MIP has 2735 rows, 5788 columns, and 21418 nonzeros.
Reduced MIP has 5788 binaries, 0 generals, 0 SOSs, and 0 indicators.
Presolve time = 0.10 sec. (100.90 ticks)
Tried aggregator 1 time.
MIP Presolve eliminated 25 rows and 19 columns.
MIP Presolve modified 7 coefficients.
Reduced MIP has 2709 rows, 5763 columns, and 21345 nonzeros.
Reduced MIP has 5763 binaries, 0 generals, 0 SOSs, and 0 indicators.
Presolve time = 0.03 sec. (24.33 ticks)
Represolve time = 0.22 sec. (172.86 ticks)
  12755     0  -1.53900e+13   205  -1.53900e+13      Cuts: 26   952014    0.00%
  12755     0  -1.53900e+13   214  -1.53900e+13       Cuts: 9   952060    0.00%
  12755     0  -1.53900e+13   239  -1.53900e+13      Cuts: 19   952141    0.00%
  12755     0  -1.53900e+13   172  -1.53900e+13   ZeroHalf: 6   952180    0.00%
  12755     0  -1.53900e+13   321  -1.53900e+13      Cuts: 39   952710    0.00%
  12755     0  -1.53900e+13   324  -1.53900e+13      Cuts: 34   952950    0.00%
  12755     0  -1.53900e+13   314  -1.53900e+13      Cuts: 43   953086    0.00%
  12755     0  -1.53900e+13   298  -1.53900e+13      Cuts: 13   953184    0.00%
  12755     0  -1.53900e+13   281  -1.53900e+13      Cuts: 11   953224    0.00%
  12755     0  -1.53900e+13   356  -1.53900e+13      Cuts: 18   953339    0.00%
  12755     2        cutoff        -1.53900e+13  -1.53900e+13   962646    0.00%
  12789     3  -1.53900e+13   294  -1.53900e+13  -1.53900e+13   958505    0.00%
  12798     3  -1.53900e+13   322  -1.53900e+13  -1.53900e+13   957848    0.00%

GUB cover cuts applied:  1
Clique cuts applied:  17
Cover cuts applied:  167
Flow cuts applied:  2
Mixed integer rounding cuts applied:  1
Zero-half cuts applied:  36
Lift and project cuts applied:  4
Gomory fractional cuts applied:  27

Root node processing (before b&c):
  Real time             =    1.23 sec. (1055.59 ticks)
Parallel b&c, 40 threads:
  Real time             =   14.61 sec. (11454.02 ticks)
  Sync time (average)   =    3.39 sec.
  Wait time (average)   =    0.11 sec.
                          ------------
Total (root+branch&cut) =   15.84 sec. (12509.61 ticks)

Solution pool: 24 solutions saved.

MIP - Integer optimal solution:  Objective = -1.5389998889e+13
Solution time =   15.96 sec.  Iterations = 962780  Nodes = 12800
Deterministic time = 12509.64 ticks  (783.84 ticks/sec)

CPLEX> Solution 'p25' written to file 'ee.sol'.
CPLEX> 